# Mass

mass 1 15.9994 # H2O O
mass 2 1.008 # H2O H

# Pair Coeff

pair_coeff 1 1 0.1852 3.1589
pair_coeff 1 2 0.0 0.0
pair_coeff 2 2 0.0 0.0

# Bond Coeff

bond_coeff 1 0.0 0.9572

# Angle Coeff

angle_coeff 1 0.0 104.52